
 102   30
  10   10   10   10   10   10   10   10   10   10   10   10   10   10   10   10   10   10   10   10   10   10   10   10   10   10   10   10   10   10

   0   0   0   0   0   0   0   0   0   0   0   0   0   0   0   0   0   0   0   0   0   0   0   0   0   0   0   0   0   0   0  22 2 3 4 6 7 8 9 11 13 14 15 16 17 18 19 21 22 27 28 32 34 37 
   9   0   0   0   0   0   1   0   0   0   0   0   1   0   0   0   0   0   0   0   0   0   0   0   0   0   0   3   0   0   0  10 41 40 39 38 35 24 20 12 10 5 
   6   0   0   0   0   0   0   0   0   0   0   0   0   0   0   0   1   0   0   1   0   0   0   0   2   1   1   0   0   0   0  19 101 65 60 57 56 55 53 52 51 50 49 48 46 44 43 38 36 35 26 
   3   0   0   0   0   0   3   0   0   0   0   0   0   0   0   0   0   0   0   0   0   0   0   0   0   0   0   0   0   0   0  19 101 100 70 69 67 66 60 59 58 56 53 52 50 47 45 42 39 29 26 
   3   0   0   0   0   0   0   0   0   0   0   0   0   0   1   0   0   0   0   0   0   0   0   0   0   0   0   0   0   0   0  20 101 73 72 69 66 64 63 60 59 58 57 53 52 51 49 46 43 36 33 31 
   8   0   0   0   0   0   0   0   0   0   0   0   0   2   0   0   0   0   0   0   0   0   1   0   0   0   0   0   0   0   0  13 101 74 70 65 63 58 54 51 50 47 43 42 23 
  10   0   0   0   2   0   0   0   0   0   1   0   0   0   0   0   0   0   0   0   0   0   0   0   0   0   0   0   0   0   0  22 101 100 99 96 95 94 74 69 67 65 64 63 62 58 57 56 55 54 52 51 50 47 
   4   0   1   0   0   0   8   0   0   1   0   1   0   0   0   0   7   0   0   0   0   3   0   0   0   0   0   6   0   0   1  19 101 100 99 95 94 70 68 67 65 64 63 62 59 58 56 55 53 50 39 
   5   0   0   0   0   0   0   0   3   0   0   0   0   0   5   1   0   0   0   0   0   0   0   0   0   0   0   0   0   0   0  10 100 99 68 58 55 54 47 44 43 25 
   5   3   0   0   0   0   0   0   0   0   0   0   0   0   0   0   0   0   0  10   0   0   0   0   0   0   0   0   0   1   0  10 100 98 96 60 58 56 55 52 49 26 
   5   0   0   0   0   0   0   0   0   9   0   5   0   0   0   0   0   1   0   0   0   6   0   0   0   5   0   0   0   0   5   8 101 97 96 67 50 45 30 26 
   4   0   0   0   0   0   0   3   0   0   0   0   0   6   0   0   8   0   0   0   0   6   0   0   0   0   0   0   1   0   0  20 101 100 98 97 94 93 90 74 73 72 68 67 66 64 63 62 57 53 52 51 
  10   0   0   0   0   0   0   0   0   0   0   5   0   0   0   0   5   0   0   0   2   0   0   2   0   0   0  10   0   0   0   9 99 95 91 90 68 64 63 62 25 
  10   0   0   2   0   5   0   0   0   0   0   0   0   0   0   0   0   0   0   0   0   0   0   0   0   0   5   0   0   7   0  14 97 96 95 94 73 69 65 63 62 60 57 56 50 45 
   3   0   4   0   0   4   0   0   0   4   0   0   0   0   0   0   6   0   1   0   0   0   0   0   0   0   0   7   0   0   0  13 101 100 97 96 91 90 88 74 67 62 56 50 30 
   8   0   0   0   0   0   8   5   0   0   0   6   0   3   0   0   0   0   0   0   0   6   5   0   0   0   0   0   0   0   0  13 100 99 98 94 89 74 66 64 61 58 57 56 39 
   4   0   0   0   2  10   0   6   0   0   0   0   5   0   0   0   0   0   3   0   0   6   0   0   1   0   0   0   0   3   0  17 100 97 95 94 92 90 88 84 74 68 67 66 63 56 54 51 50 
   2   0   0   0   8   0   0   0   0   4   0   0   0   7   0   0   0   0   0   0   0   0   0   0   0   0   0   0   0   0   0  16 101 100 96 95 94 93 92 90 79 73 69 67 64 61 56 40 
   9   4   0   0   0   0   0   5   5   8   5   0   9   8   0   0   0   0   0   0   0   0   0   0   0   0   0   4   0   0   0  23 101 100 99 98 96 95 94 92 91 90 89 88 87 86 85 84 83 82 74 73 72 67 50 
   9   0   0   0   0   0   0   3   0   0   0   0   3   0   0   0   0   0   7   0   0   0   0   0   0   0   0   0   8   0   0  13 95 94 91 90 85 73 68 67 62 58 55 50 44 
   6   0   0   0   0   0   0   0   4   0   0   8   0   0   0   6   0   0   0   0   0   0   0   0   0   0   0   0   5   0   0  17 101 98 97 95 93 92 91 90 87 81 69 68 67 63 61 56 55 
   1   0   6   0   0   0   0   0   0   0   0   0   0   0   0   4   0   0   0   0   0   0   0   0   0   0   0   0   0   0   0  15 101 100 96 93 84 83 81 79 74 71 68 66 62 60 56 
   6   3   0   0   0   0   8   0   8   0   7   0   0   0   0   0   0   0   0   0   0   0   0   0   7   0   0   6   0   0   0  17 99 96 94 92 91 90 89 88 85 83 79 72 68 67 61 59 55 
   6   0   0   0   0   0   0   0   7   0   0   0   0   0   6   0   0   0   0   0   0   0   0   0   0   9   0   0   0   0   0  14 97 96 95 93 87 85 81 74 69 65 63 61 60 57 
   7   7   0   9   0   0   0   0   0   0   0   9   0   0   0   6   4   4   0   0   0   0   0   6   0   0   0   0   0   0   4  11 96 88 87 84 82 74 73 67 56 50 48 
   4   0   0   0   0   0   0   0   0   0   0   0   0   0   8   0   0   0   9   0   0   0   0   0   0   0   9   0   0   0   5  13 99 94 93 90 85 75 74 73 72 68 63 62 54 
   6   7   0   0   0   0   0   0   0   0   0   0   0   0   0   6   5   0   0   0   0   0   0   0   0   0   0   0   0   0   0  12 99 97 95 91 90 89 87 86 74 67 61 45 
   1  10   0   0   0   4   3   5   0   0   0   0   0   0   5   0   0   0   0   0   0   5   6   0   0   0   0   0   6   0   0  10 94 91 87 86 85 84 72 61 58 47 
   7   0   0   0   0   0   0   0  10   0   0   0   0   0   0   0   0   0   0   0   0   0   0   0   0   0   0   0   7   0   0  11 99 88 83 81 77 72 68 65 62 61 57 
   2   0   3   0   0   7   0   0   0   0   5   0   0   0   0   0   0   0   0   0   4   0   0   6   0   8   0   0   0   9   0  12 99 95 94 93 92 85 83 77 73 72 61 57 
   8   0   0   0   0   0   0   0   0   0   0   0   0   0   0   0   7   0   0   6   0   8   0   0   0   0   0   0   0   0   0  16 100 99 97 94 92 89 87 84 83 82 81 80 79 71 68 67 
   5   0   0   0   6   0   0   0   0   0   0   0   0   0   0   0   0   0   0   0   0   0   0   0   0   0   8   0   0   0   0   9 94 92 91 85 83 72 69 55 50 
   7   0   0   3   5   0   0   0   0   0   0   0   0   0   0   0   0   0   0   0   0   0   0   0   0   0   0   0   4   0   0   8 95 94 87 85 68 65 55 50 
   2   0   0   0   9   0   0   7   0   0   0   0   8   6   0   0   0   0   0   7   0   0   0   0   0   0   0   0   0   0   0  13 90 89 87 86 84 82 81 79 74 72 67 65 61 
   2   0   7   0   0   0  10   0   0   0   0   2   0   0   0   0   0   0   0   0   0   0   0   0   0   0   0   0   0   0   0  12 98 96 93 85 83 82 76 72 71 69 68 64 
   7   3   0  10   0   4   0   0   7   0   0   0   0   0   0   0   0   0   0   0   0   0   0   0   0   0   0   0   0   0   0  11 95 94 88 84 82 79 78 75 74 67 62 
   7   0   0   0   0   0   0   0   0   0   0   0   6   0   0   0   0   0   0   0   0   0   0   0   0   0   0   4   0   0   0  11 100 97 91 89 88 86 83 79 73 67 61 
   4   0   0   0   0   0   0   0   0   0   0   0   5   0   0   0   0   6   0   0   0   5   0   0   0   0   0   0   0   0   9  15 97 95 92 91 90 88 87 84 82 81 80 79 77 76 71 
   7   0   0   0   0   0   0   8   0   0   8   0   0   0   0   0   5   0   0   0   0   0   0   0   0   0   0   0   0   0   0  13 96 93 92 91 90 88 87 85 79 77 73 72 71 
   8   0   0   0   0   6   0   0   0   0   0   0   0   0   0   0   0   0   0   7   0   0   0  10   0   0   0   7   0   0   0  10 91 89 88 87 86 85 83 77 72 55 
   9   0   0   0   0   6   0   5   0   0   0   0   0   0   0   0   0   0   0   8   0   0   0   2   0   0   0   0   0   0   0  12 99 98 95 90 88 85 84 82 81 76 75 63 
  10   0   0   0   0   0   0   0   0   0   0   0   0   0   8   0   0   0   0   0   0   0   0   0   0   0   0   0   0   0   0   9 99 96 91 90 84 83 80 64 62 
   9   7   0   0   0   7   0   0   0   0   0   0   0   7   0  10   0   0   0   0   0   0   0   0   0   0   0   0   0   0   0  12 96 95 94 90 89 88 85 82 79 78 75 67 
   4   0   0   0   0   0   0   0   0   0   6   0   0   0   0   0   0   0   0   0   0   0   0   7   0   0   0   8   0   0   0   9 92 89 87 83 78 77 76 71 59 
  10   0   6   0   6   0   0   0   0   0   0   0   0   0   0   9   0   0   0   0   0   0   0   0   6   0   0   0   6   0   0   8 88 85 83 81 79 78 77 55 
   3   0   0   0   0   7   0   0   0   0   5   0   0   5   0   0   0   0   0   0   0   0   3   0   0   0   0   0   0   0   0  11 90 85 84 83 82 81 80 79 78 76 71 
   5   0   0   0   0   0   8   0   0   0   0   6   0   0   0   0  10   0   0   0   0   0   0   0   0   0   7   0   0   9   0  10 98 90 88 83 82 79 78 77 76 73 
   5   0   0   0   0   8   4   0   0   0   0   0   0   0   0   0   0   0   0   0   0   0   0   0   0   0   0   0   0   0   0  10 98 94 93 89 86 83 79 78 77 76 
   5   0   0   0   0   0   0   0   0   0   0   0   0   0   0   0   0   0   0   0   5   0   0   0   0   0   0   0   0   0   0   6 87 85 82 81 74 67 
   8   0   0   0   0   0   0   0   0   0   0   0   0   0   0   0   0   0   0   0   0   0   0   0   0   0   0   0   0   0   0   5 93 81 79 77 61 
   8   0   0   0   0   9   0   0   0   0   0   9   0   0   0   0   0   0   0   6   0   0   0   0   0   0   3   0   0   0   8   4 89 85 79 61 
   5   0   0   0   0   0   7   0   0   0   0   0   0   0   0   0   0   0   0   0   0   5   0   0   0   9   0   0   6   0   0   7 92 86 85 79 78 77 75 
   3   7   0   0   0   0   0   0   0   0   0   0   5   0   0   0   0   0   0   0   0   0   0   0   0   0   0   0   0   0   0   7 87 84 81 78 77 76 75 
   7   0   0   0   0   0   0   0   0   0   0   0   0   0   0   0   0   0   0   0   0   0   0   0   0   0   0   0   0   0   0   6 91 87 86 82 77 76 
   3   0   0   6   0   0   0   0   0   0   0   0   0   6   0   0   0   0   5   0   6   0   0   0   0   0   0   0   0   0   6   5 84 82 80 76 71 
   2   0   0   0   0   0   0   0   0   0   0   4   0   0   0   7   0   0   0   0   0   0   0   0   0   0   5   0   0   0   0   5 86 85 78 75 72 
   4   0   0   0   0   7   0   0   0   0   0   0   5   0   0   0   0   6   0   0   0   0   0   0   0   0   0   0   0   0   0   5 86 84 82 79 75 
   6   0   0   0   0   0   0  10   0   0   0   0   0   0   0   0   0   0   0   0   0   0   0   0   4   0   0   0   0   0  10   5 97 83 79 76 75 
   1   0   0   0   0   0   0   0   2   0   0   0   0   0   0   4   0   0   0   0   8   0   0   7   0   0   4  10   0   0   0   4 98 82 81 80 
   7   8   0   0   0   0   0   7   0   0   0   0   0   0   0   0   0   0   0   0   0   0   0   7   0   2   0   0   0   9   0   4 91 90 88 80 
   3   0   0   0   0   0   0   8   4   0   0   0   0   0   0   0   0   0   0   0   0   0   0   0   0   0   0   0   0   0   0   3 78 76 71 
   3   0   0   0   0   0   0   0   0   0   0   0   0   0   0   0   7   0  10   0   0   0   0   0   0   0   0   0   0   7   0   3 92 89 87 
   3   6   0   0   0   5   0   0   0   0   0   6   0  10   0   0   0   0   6   0   0   0   6   7   0   0   0   0   0   0   0   3 83 79 78 
   3  10   0   0  10   4   0   0   0   0   0   0   0   0   0   0   0   0   0   0   0   0   0   0   0   0   0   0   0   0   8   3 88 81 75 
   4   0   0   0   0   5   0   0   0   0   0   4   0   0   0   0   0   0   0   0   0   0   0   0   0   0   0   0   7   0   0   3 80 78 75 
   3   0   0   0   0   6   0   0   0   0   0   0   0   0   0   0   0   8   0   0   0   0   0   0   0   0   0   0   0   5   0   3 91 77 76 
   2   0   0   0   0   0   0   0   0   0   0   6   0   0   0   0   0   0   6   0   0   4   0   0   0   0   0   3   0   0   0   2 77 76 
   1   0   0   0   0   0   0   0   0   0   0   8   0   0   0   3   0   0   0   5   0   0   0   0   0   0   0   0   0   0   6   2 86 78 
   7   7   0   0   0   0   0   0   0   0   0   0   0   0   0   0   0   0   0   7   9   0   0   0   0   0   0   0   0   0   0   2 77 75 
   4   5   0   0   0   0   0   0   0  10   0   0   0   0   0   0   0   0   0   0   0   0   6   0   5   0  10   2   0   0   0   2 79 77 
  10   0   0   0   0   0   0   0   0   0   0   0   0   0   0   0   0   0   0   0   0   6   8   0   0   0   0   0   0   0   0   1 75 
   1   0   0   5   0   0   0   0   0   0   0   0   0   0   0   0   0   0   0   0   0   0   0   0   0   0   0   0   0   3   0   1 80 
   8   0   0   0   0   0   9   0   0   0   0   0   0   0   0   0   0   0   0   0   0  10   0   0   0   0   0   0   0   7   0   1 81 
   4   0   0   0   0   0   0   0   0   0   0   0   0   0   0   0   0   0   0   0   0   0   0   0   0   0   0   0   0   0   0   1 80 
   2   0   0   0   0   5   0   0   0   0   0   0   0   0   0   0   0   0   0   0   0   0   0   0   6   0   0   0   8   0   0   1 102
   5   0   0   3   0   3   0   0   0   0   0   0   0   0   0   0   0   5   0   0   0   0   0   0   0   0   0   5   0   0   0   1 102
   7   0   0   0   0   0   0   7   0   0   0   0  10   0   0   0   0   6   0   0   4   0   0   0   0   0   0   0   0   0   0   1 102
  10   0   0   8   0   0   0   0   0   6   0   8   0   0   0  10   0   0   0   0   6   0   0   9   0   0   0   4   0   0   8   1 102
   4   0   0   0   0   0   0   0   0   0   0   0   0   0   0   0   6  10   0   0   0   0   0   0   0   0   7   0   0   0   0   1 102
   7   4   0   0   8   0   0   0   0   0   0   0   0   0   5   9   0   0   0   0   0   0   0   0   0   0   0   0   0   0   0   1 102
   9   0   0   0   0   0   0   0   0   0   0   0   0   0   0   6   6   0   0   0   0   0   0   0   0   0   0   0   0   0   0   1 102
   2   0   4   0   0   0   0   0   0   8   0   0   0   0   0   0   0   0   0   5   0   0   0   0   0   0   0   5   0   0   0   1 102
   1   0   5   0   5   0   0   0   0   0   0   0   0   0   0   0   0   0   0   0   0   0   0   0   0   0   0   0   5   0   0   1 102
   3   0   0   0   0   0   0   0   0   0   7   6   0   0   0   0   0   0   0   0   0   0   0   4   0   0   0   0   0   0   0   1 102
   1   0   0   0   0   0   0   0   0   0   0   0   0   0   0   0   0   0   0   0   0   0   0   0   0   0   4   0   0   0   4   1 102
  10   9   0   0   6   0   0   0  10   0   8   0   0   0   0   0   0  10   0   0  10   0   0   0   0   0   0   8   0   0   0   1 102
   7   0   8   0   8   0   3   0   0   0   0   0   0   0   0   0   0   4   0   0   0   0   0   7   0   0   0   0   0   0   4   1 102
   6   2   0   0   0   0   0   0   0   0   0   0   0   0   0   0   0   0   0   0   0   0   0   0   0   0   0   4   0   0   0   1 102
  10   0   0   0   3   8   0   0   0   0   0   0   0   0   0   0   0   0   0   0   0   0   0   0  10   0   0   0   5   5   0   1 102
  10   0   0   0   4   0   0   0   0   6   0   0   0   4   0   0   0   0   0   0   0   0   0   0   0   0  10  10   0   0   0   1 102
   1   0   0   0   0   0   0   0   0   0   8   0   0   0   0   0   8   0   0   0   0   0   0   4   0   0   0   0   0   0   0   1 102
   3   1   0   6   0   0   0   0   0   0   0   0   0   0   0   0   0   0   0   4   0   0   0   0   0   0   0   0   9   0   0   1 102
   4   0   0   0   0   0   0   0   0   0   6   0   9   0   0   0   0   0   7   0   0   0   0   0   0   8   0   0   0   0   0   1 102
   6   0   9   9   0   0   0   0   0   4   0   0   0   0   5   0   0   0   6   0   4   0  10   0   0   0   0   0   0   0   0   1 102
   8   0   8   6   0   0   0   0   0   0   0   7   0   0   0   6   7   0   0   0   8   0   0   0   0   0   0   0   0   0   0   1 102
   5   9   0   5   8   0   0   0   0   0   0   6   0   0   0   0   5   0   0   0   0   0   9   0   0   0   0   6   0   0   0   1 102
   8   0   0   0   0   0   0   5   0   0   0   0   0   0   7   3   5   0   0   0   0   0   0   0   9   0   0   0   4   7   0   1 102
   5   0   7   0   0   0   0   0   0   0   0   0   0   0   0   0   0   0   6   0   0   8   0   0   0   0   0   0   0   0   0   1 102
   8   0   0   0   0   0   0   0   0   0   0   0   0   8   0   0   0   0   0   0   0   0   0   0  10   0   0   8   9   0   0   1 102
   5   8   0   0   0   0   0   0   0   0   0   8   0   0  10   0   0   0   0   0   0   0   0   0   0   0   0   0   0   0   0   1 102
   2   6  10   0   0   0   0   0   0   0   0   0   0   0   0   0   0   0   0   0   0   0   0   0   0   0   5   0   0   0   0   1 102
   0   0   0   0   0   0   0   0   0   0   0   0   0   0   0   0   0   0   0   0   0   0   0   0   0   0   0   0   0   0   0   0 
